Minimize
  0.2 y_0 + 0.0714285714285714 y_1 + 0.1 y_2 + 0.1111111111111111 y_3
   + 0.1111111111111111 y_4 + 0.125 y_5 + 0.0909090909090909 y_6 + 0.25 y_7
   + 0.3333333333333333 y_8 + 0.0666666666666667 y_9
   + 0.0909090909090909 y_10 + 0.0666666666666667 y_11
   + 0.0769230769230769 y_12 + 0.0833333333333333 y_13
   + 0.0714285714285714 y_14 + y_15 + 0.1428571428571428 y_16 + 0.1 y_17
   + 0.1666666666666667 y_18 + 0.125 y_19 - 3.383344433344433 Constant
Subject To
 c_0: y_10 = 1
 c_1_0: y_0 + y_7 + y_8 >= 1
 c_1_1: y_1 + y_9 + y_11 >= 1
 c_1_2: y_2 >= 1
 c_1_3: y_3 + y_5 + y_17 + y_18 >= 1
 c_1_4: y_4 + y_16 + y_19 >= 1
 c_1_5: y_3 + y_5 + y_16 + y_17 + y_19 >= 1
 c_1_6: y_6 >= 1
 c_1_7: y_0 + y_7 + y_8 + y_15 >= 1
 c_1_8: y_0 + y_7 + y_8 + y_15 + y_18 >= 1
 c_1_9: y_1 + y_9 >= 1
 c_1_10: y_10 + y_12 + y_13 + y_14 >= 1
 c_1_11: y_1 + y_11 >= 1
 c_1_12: y_10 + y_12 + y_13 + y_14 >= 1
 c_1_13: y_10 + y_12 + y_13 + y_14 >= 1
 c_1_14: y_10 + y_12 + y_13 + y_14 >= 1
 c_1_15: y_7 + y_8 + y_15 >= 1
 c_1_16: y_4 + y_5 + y_16 + y_19 >= 1
 c_1_17: y_3 + y_5 + y_17 >= 1
 c_1_18: y_3 + y_8 + y_18 >= 1
 c_1_19: y_4 + y_5 + y_16 + y_19 >= 1
Bounds
 Constant = 1
Binaries
 y_0 y_1 y_2 y_3 y_4 y_5 y_6 y_7 y_8 y_9 y_10 y_11 y_12 y_13 y_14 y_15 y_16
 y_17 y_18 y_19
End
